(set-logic QF_LRA)
(declare-fun X0 () Real )
(declare-fun Y0 () Real )
(declare-fun X1 () Real )
(declare-fun Y1 () Real )
(declare-fun X2 () Real )
(declare-fun Y2 () Real )
(declare-fun X3 () Real )
(declare-fun Y3 () Real )
(declare-fun X4 () Real )
(declare-fun Y4 () Real )
(declare-fun X5 () Real )
(declare-fun Y5 () Real )
(declare-fun X6 () Real )
(declare-fun Y6 () Real )
(declare-fun X7 () Real )
(declare-fun Y7 () Real )
(declare-fun X8 () Real )
(declare-fun Y8 () Real )
(declare-fun X9 () Real )
(declare-fun Y9 () Real )
(declare-fun X10 () Real )
(declare-fun Y10 () Real )
(declare-fun X11 () Real )
(declare-fun Y11 () Real )
(declare-fun Z () Real )
(assert ( and  
( or ( <= ( + X0 94 ) X1 )  ( <= ( + X1 25 ) X0 )  ( <= ( + Y0 92 ) Y1 )  ( <= ( + Y1 87 ) Y0 )  )
( or ( <= ( + X0 94 ) X2 )  ( <= ( + X2 18 ) X0 )  ( <= ( + Y0 92 ) Y2 )  ( <= ( + Y2 21 ) Y0 )  )
( or ( <= ( + X0 94 ) X3 )  ( <= ( + X3 69 ) X0 )  ( <= ( + Y0 92 ) Y3 )  ( <= ( + Y3 65 ) Y0 )  )
( or ( <= ( + X0 94 ) X4 )  ( <= ( + X4 22 ) X0 )  ( <= ( + Y0 92 ) Y4 )  ( <= ( + Y4 15 ) Y0 )  )
( or ( <= ( + X0 94 ) X5 )  ( <= ( + X5 42 ) X0 )  ( <= ( + Y0 92 ) Y5 )  ( <= ( + Y5 72 ) Y0 )  )
( or ( <= ( + X0 94 ) X6 )  ( <= ( + X6 74 ) X0 )  ( <= ( + Y0 92 ) Y6 )  ( <= ( + Y6 43 ) Y0 )  )
( or ( <= ( + X0 94 ) X7 )  ( <= ( + X7 87 ) X0 )  ( <= ( + Y0 92 ) Y7 )  ( <= ( + Y7 97 ) Y0 )  )
( or ( <= ( + X0 94 ) X8 )  ( <= ( + X8 57 ) X0 )  ( <= ( + Y0 92 ) Y8 )  ( <= ( + Y8 34 ) Y0 )  )
( or ( <= ( + X0 94 ) X9 )  ( <= ( + X9 47 ) X0 )  ( <= ( + Y0 92 ) Y9 )  ( <= ( + Y9 82 ) Y0 )  )
( or ( <= ( + X0 94 ) X10 )  ( <= ( + X10 16 ) X0 )  ( <= ( + Y0 92 ) Y10 )  ( <= ( + Y10 14 ) Y0 )  )
( or ( <= ( + X0 94 ) X11 )  ( <= ( + X11 72 ) X0 )  ( <= ( + Y0 92 ) Y11 )  ( <= ( + Y11 42 ) Y0 )  )
( or ( <= ( + X1 25 ) X2 )  ( <= ( + X2 18 ) X1 )  ( <= ( + Y1 87 ) Y2 )  ( <= ( + Y2 21 ) Y1 )  )
( or ( <= ( + X1 25 ) X3 )  ( <= ( + X3 69 ) X1 )  ( <= ( + Y1 87 ) Y3 )  ( <= ( + Y3 65 ) Y1 )  )
( or ( <= ( + X1 25 ) X4 )  ( <= ( + X4 22 ) X1 )  ( <= ( + Y1 87 ) Y4 )  ( <= ( + Y4 15 ) Y1 )  )
( or ( <= ( + X1 25 ) X5 )  ( <= ( + X5 42 ) X1 )  ( <= ( + Y1 87 ) Y5 )  ( <= ( + Y5 72 ) Y1 )  )
( or ( <= ( + X1 25 ) X6 )  ( <= ( + X6 74 ) X1 )  ( <= ( + Y1 87 ) Y6 )  ( <= ( + Y6 43 ) Y1 )  )
( or ( <= ( + X1 25 ) X7 )  ( <= ( + X7 87 ) X1 )  ( <= ( + Y1 87 ) Y7 )  ( <= ( + Y7 97 ) Y1 )  )
( or ( <= ( + X1 25 ) X8 )  ( <= ( + X8 57 ) X1 )  ( <= ( + Y1 87 ) Y8 )  ( <= ( + Y8 34 ) Y1 )  )
( or ( <= ( + X1 25 ) X9 )  ( <= ( + X9 47 ) X1 )  ( <= ( + Y1 87 ) Y9 )  ( <= ( + Y9 82 ) Y1 )  )
( or ( <= ( + X1 25 ) X10 )  ( <= ( + X10 16 ) X1 )  ( <= ( + Y1 87 ) Y10 )  ( <= ( + Y10 14 ) Y1 )  )
( or ( <= ( + X1 25 ) X11 )  ( <= ( + X11 72 ) X1 )  ( <= ( + Y1 87 ) Y11 )  ( <= ( + Y11 42 ) Y1 )  )
( or ( <= ( + X2 18 ) X3 )  ( <= ( + X3 69 ) X2 )  ( <= ( + Y2 21 ) Y3 )  ( <= ( + Y3 65 ) Y2 )  )
( or ( <= ( + X2 18 ) X4 )  ( <= ( + X4 22 ) X2 )  ( <= ( + Y2 21 ) Y4 )  ( <= ( + Y4 15 ) Y2 )  )
( or ( <= ( + X2 18 ) X5 )  ( <= ( + X5 42 ) X2 )  ( <= ( + Y2 21 ) Y5 )  ( <= ( + Y5 72 ) Y2 )  )
( or ( <= ( + X2 18 ) X6 )  ( <= ( + X6 74 ) X2 )  ( <= ( + Y2 21 ) Y6 )  ( <= ( + Y6 43 ) Y2 )  )
( or ( <= ( + X2 18 ) X7 )  ( <= ( + X7 87 ) X2 )  ( <= ( + Y2 21 ) Y7 )  ( <= ( + Y7 97 ) Y2 )  )
( or ( <= ( + X2 18 ) X8 )  ( <= ( + X8 57 ) X2 )  ( <= ( + Y2 21 ) Y8 )  ( <= ( + Y8 34 ) Y2 )  )
( or ( <= ( + X2 18 ) X9 )  ( <= ( + X9 47 ) X2 )  ( <= ( + Y2 21 ) Y9 )  ( <= ( + Y9 82 ) Y2 )  )
( or ( <= ( + X2 18 ) X10 )  ( <= ( + X10 16 ) X2 )  ( <= ( + Y2 21 ) Y10 )  ( <= ( + Y10 14 ) Y2 )  )
( or ( <= ( + X2 18 ) X11 )  ( <= ( + X11 72 ) X2 )  ( <= ( + Y2 21 ) Y11 )  ( <= ( + Y11 42 ) Y2 )  )
( or ( <= ( + X3 69 ) X4 )  ( <= ( + X4 22 ) X3 )  ( <= ( + Y3 65 ) Y4 )  ( <= ( + Y4 15 ) Y3 )  )
( or ( <= ( + X3 69 ) X5 )  ( <= ( + X5 42 ) X3 )  ( <= ( + Y3 65 ) Y5 )  ( <= ( + Y5 72 ) Y3 )  )
( or ( <= ( + X3 69 ) X6 )  ( <= ( + X6 74 ) X3 )  ( <= ( + Y3 65 ) Y6 )  ( <= ( + Y6 43 ) Y3 )  )
( or ( <= ( + X3 69 ) X7 )  ( <= ( + X7 87 ) X3 )  ( <= ( + Y3 65 ) Y7 )  ( <= ( + Y7 97 ) Y3 )  )
( or ( <= ( + X3 69 ) X8 )  ( <= ( + X8 57 ) X3 )  ( <= ( + Y3 65 ) Y8 )  ( <= ( + Y8 34 ) Y3 )  )
( or ( <= ( + X3 69 ) X9 )  ( <= ( + X9 47 ) X3 )  ( <= ( + Y3 65 ) Y9 )  ( <= ( + Y9 82 ) Y3 )  )
( or ( <= ( + X3 69 ) X10 )  ( <= ( + X10 16 ) X3 )  ( <= ( + Y3 65 ) Y10 )  ( <= ( + Y10 14 ) Y3 )  )
( or ( <= ( + X3 69 ) X11 )  ( <= ( + X11 72 ) X3 )  ( <= ( + Y3 65 ) Y11 )  ( <= ( + Y11 42 ) Y3 )  )
( or ( <= ( + X4 22 ) X5 )  ( <= ( + X5 42 ) X4 )  ( <= ( + Y4 15 ) Y5 )  ( <= ( + Y5 72 ) Y4 )  )
( or ( <= ( + X4 22 ) X6 )  ( <= ( + X6 74 ) X4 )  ( <= ( + Y4 15 ) Y6 )  ( <= ( + Y6 43 ) Y4 )  )
( or ( <= ( + X4 22 ) X7 )  ( <= ( + X7 87 ) X4 )  ( <= ( + Y4 15 ) Y7 )  ( <= ( + Y7 97 ) Y4 )  )
( or ( <= ( + X4 22 ) X8 )  ( <= ( + X8 57 ) X4 )  ( <= ( + Y4 15 ) Y8 )  ( <= ( + Y8 34 ) Y4 )  )
( or ( <= ( + X4 22 ) X9 )  ( <= ( + X9 47 ) X4 )  ( <= ( + Y4 15 ) Y9 )  ( <= ( + Y9 82 ) Y4 )  )
( or ( <= ( + X4 22 ) X10 )  ( <= ( + X10 16 ) X4 )  ( <= ( + Y4 15 ) Y10 )  ( <= ( + Y10 14 ) Y4 )  )
( or ( <= ( + X4 22 ) X11 )  ( <= ( + X11 72 ) X4 )  ( <= ( + Y4 15 ) Y11 )  ( <= ( + Y11 42 ) Y4 )  )
( or ( <= ( + X5 42 ) X6 )  ( <= ( + X6 74 ) X5 )  ( <= ( + Y5 72 ) Y6 )  ( <= ( + Y6 43 ) Y5 )  )
( or ( <= ( + X5 42 ) X7 )  ( <= ( + X7 87 ) X5 )  ( <= ( + Y5 72 ) Y7 )  ( <= ( + Y7 97 ) Y5 )  )
( or ( <= ( + X5 42 ) X8 )  ( <= ( + X8 57 ) X5 )  ( <= ( + Y5 72 ) Y8 )  ( <= ( + Y8 34 ) Y5 )  )
( or ( <= ( + X5 42 ) X9 )  ( <= ( + X9 47 ) X5 )  ( <= ( + Y5 72 ) Y9 )  ( <= ( + Y9 82 ) Y5 )  )
( or ( <= ( + X5 42 ) X10 )  ( <= ( + X10 16 ) X5 )  ( <= ( + Y5 72 ) Y10 )  ( <= ( + Y10 14 ) Y5 )  )
( or ( <= ( + X5 42 ) X11 )  ( <= ( + X11 72 ) X5 )  ( <= ( + Y5 72 ) Y11 )  ( <= ( + Y11 42 ) Y5 )  )
( or ( <= ( + X6 74 ) X7 )  ( <= ( + X7 87 ) X6 )  ( <= ( + Y6 43 ) Y7 )  ( <= ( + Y7 97 ) Y6 )  )
( or ( <= ( + X6 74 ) X8 )  ( <= ( + X8 57 ) X6 )  ( <= ( + Y6 43 ) Y8 )  ( <= ( + Y8 34 ) Y6 )  )
( or ( <= ( + X6 74 ) X9 )  ( <= ( + X9 47 ) X6 )  ( <= ( + Y6 43 ) Y9 )  ( <= ( + Y9 82 ) Y6 )  )
( or ( <= ( + X6 74 ) X10 )  ( <= ( + X10 16 ) X6 )  ( <= ( + Y6 43 ) Y10 )  ( <= ( + Y10 14 ) Y6 )  )
( or ( <= ( + X6 74 ) X11 )  ( <= ( + X11 72 ) X6 )  ( <= ( + Y6 43 ) Y11 )  ( <= ( + Y11 42 ) Y6 )  )
( or ( <= ( + X7 87 ) X8 )  ( <= ( + X8 57 ) X7 )  ( <= ( + Y7 97 ) Y8 )  ( <= ( + Y8 34 ) Y7 )  )
( or ( <= ( + X7 87 ) X9 )  ( <= ( + X9 47 ) X7 )  ( <= ( + Y7 97 ) Y9 )  ( <= ( + Y9 82 ) Y7 )  )
( or ( <= ( + X7 87 ) X10 )  ( <= ( + X10 16 ) X7 )  ( <= ( + Y7 97 ) Y10 )  ( <= ( + Y10 14 ) Y7 )  )
( or ( <= ( + X7 87 ) X11 )  ( <= ( + X11 72 ) X7 )  ( <= ( + Y7 97 ) Y11 )  ( <= ( + Y11 42 ) Y7 )  )
( or ( <= ( + X8 57 ) X9 )  ( <= ( + X9 47 ) X8 )  ( <= ( + Y8 34 ) Y9 )  ( <= ( + Y9 82 ) Y8 )  )
( or ( <= ( + X8 57 ) X10 )  ( <= ( + X10 16 ) X8 )  ( <= ( + Y8 34 ) Y10 )  ( <= ( + Y10 14 ) Y8 )  )
( or ( <= ( + X8 57 ) X11 )  ( <= ( + X11 72 ) X8 )  ( <= ( + Y8 34 ) Y11 )  ( <= ( + Y11 42 ) Y8 )  )
( or ( <= ( + X9 47 ) X10 )  ( <= ( + X10 16 ) X9 )  ( <= ( + Y9 82 ) Y10 )  ( <= ( + Y10 14 ) Y9 )  )
( or ( <= ( + X9 47 ) X11 )  ( <= ( + X11 72 ) X9 )  ( <= ( + Y9 82 ) Y11 )  ( <= ( + Y11 42 ) Y9 )  )
( or ( <= ( + X10 16 ) X11 )  ( <= ( + X11 72 ) X10 )  ( <= ( + Y10 14 ) Y11 )  ( <= ( + Y11 42 ) Y10 )  )
( >= X0 0)
( <= ( + X0 94) Z)
( >= Y0 0)
( <= ( + Y0 92 ) 173)
( >= X1 0)
( <= ( + X1 25) Z)
( >= Y1 0)
( <= ( + Y1 87 ) 173)
( >= X2 0)
( <= ( + X2 18) Z)
( >= Y2 0)
( <= ( + Y2 21 ) 173)
( >= X3 0)
( <= ( + X3 69) Z)
( >= Y3 0)
( <= ( + Y3 65 ) 173)
( >= X4 0)
( <= ( + X4 22) Z)
( >= Y4 0)
( <= ( + Y4 15 ) 173)
( >= X5 0)
( <= ( + X5 42) Z)
( >= Y5 0)
( <= ( + Y5 72 ) 173)
( >= X6 0)
( <= ( + X6 74) Z)
( >= Y6 0)
( <= ( + Y6 43 ) 173)
( >= X7 0)
( <= ( + X7 87) Z)
( >= Y7 0)
( <= ( + Y7 97 ) 173)
( >= X8 0)
( <= ( + X8 57) Z)
( >= Y8 0)
( <= ( + Y8 34 ) 173)
( >= X9 0)
( <= ( + X9 47) Z)
( >= Y9 0)
( <= ( + Y9 82 ) 173)
( >= X10 0)
( <= ( + X10 16) Z)
( >= Y10 0)
( <= ( + Y10 14 ) 173)
( >= X11 0)
( <= ( + X11 72) Z)
( >= Y11 0)
( <= ( + Y11 42 ) 173)
) )
(minimize Z)
(check-sat)
